Grasp exp. instance_n_15_m_5_id_2.lp tipoLifted 0 szPool 5 nIteration 20 alpha 0.8 
Academic license - for non-commercial use only
Read LP format model from file ../input/instancesGenerated/instance_n_15_m_5_id_2.lp
Reading time = 0.00 seconds
: 5 rows, 15 columns, 75 nonzeros
Optimize a model with 5 rows, 15 columns and 75 nonzeros
Variable types: 0 continuous, 15 integer (15 binary)
Coefficient statistics:
  Matrix range     [1e+00, 1e+01]
  Objective range  [1e+00, 1e+01]
  Bounds range     [1e+00, 1e+00]
  RHS range        [4e+01, 5e+01]
Found heuristic solution: objective 36.0000000

Explored 0 nodes (0 simplex iterations) in 0.00 seconds
Thread count was 1 (of 8 available processors)

Solution count 1: 36 
No other solutions better than 0

Solution limit reached
Best objective 3.600000000000e+01, best bound -, gap -
C_1:	 6.00 x_1  = 1.000000 + 6.00 x_2  = 0.000000 + 1.00 x_3  = 0.000000 + 4.00 x_4  = 1.000000 + 5.00 x_5  = 0.101545 + 9.00 x_6  = 0.253863 + 9.00 x_7  = 0.112583 + 2.00 x_8  = 1.000000 + 4.00 x_9  = 0.000000 + 1.00 x_10  = 1.000000 + 6.00 x_11  = 1.000000 + 2.00 x_12  = 0.000000 + 7.00 x_13  = 1.000000 + 8.00 x_14  = 0.024283 + 9.00 x_15  = 1.000000 <= 39.00
C_2:	 4.00 x_1  = 1.000000 + 9.00 x_2  = 0.000000 + 2.00 x_3  = 0.000000 + 7.00 x_4  = 1.000000 + 8.00 x_5  = 0.101545 + 7.00 x_6  = 0.253863 + 3.00 x_7  = 0.112583 + 7.00 x_8  = 1.000000 + 7.00 x_9  = 0.000000 + 10.00 x_10  = 1.000000 + 6.00 x_11  = 1.000000 + 5.00 x_12  = 0.000000 + 2.00 x_13  = 1.000000 + 3.00 x_14  = 0.024283 + 1.00 x_15  = 1.000000 <= 40.00
C_3:	 8.00 x_1  = 1.000000 + 9.00 x_2  = 0.000000 + 8.00 x_3  = 0.000000 + 1.00 x_4  = 1.000000 + 4.00 x_5  = 0.101545 + 2.00 x_6  = 0.253863 + 9.00 x_7  = 0.112583 + 5.00 x_8  = 1.000000 + 5.00 x_9  = 0.000000 + 4.00 x_10  = 1.000000 + 5.00 x_11  = 1.000000 + 3.00 x_12  = 0.000000 + 5.00 x_13  = 1.000000 + 3.00 x_14  = 0.024283 + 10.00 x_15  = 1.000000 <= 40.00
C_4:	 6.00 x_1  = 1.000000 + 7.00 x_2  = 0.000000 + 8.00 x_3  = 0.000000 + 7.00 x_4  = 1.000000 + 3.00 x_5  = 0.101545 + 7.00 x_6  = 0.253863 + 6.00 x_7  = 0.112583 + 7.00 x_8  = 1.000000 + 5.00 x_9  = 0.000000 + 2.00 x_10  = 1.000000 + 9.00 x_11  = 1.000000 + 1.00 x_12  = 0.000000 + 7.00 x_13  = 1.000000 + 10.00 x_14  = 0.024283 + 3.00 x_15  = 1.000000 <= 44.00
C_5:	 9.00 x_1  = 1.000000 + 9.00 x_2  = 0.000000 + 3.00 x_3  = 0.000000 + 7.00 x_4  = 1.000000 + 9.00 x_5  = 0.101545 + 9.00 x_6  = 0.253863 + 10.00 x_7  = 0.112583 + 10.00 x_8  = 1.000000 + 3.00 x_9  = 0.000000 + 7.00 x_10  = 1.000000 + 3.00 x_11  = 1.000000 + 9.00 x_12  = 0.000000 + 9.00 x_13  = 1.000000 + 10.00 x_14  = 0.024283 + 1.00 x_15  = 1.000000 <= 54.00
Solution initial: 64.344371 
Number Constraints Used in Cover:5
GRASP Method!
Number cuts repeat: 0
value: 64.344371
Number Constraints Used in Cover:10
GRASP Method!
Number cuts repeat: 0
value: 64.344371
Number Constraints Used in Cover:18
GRASP Method!
Number cuts repeat: 0
value: 64.344371
Number Constraints Used in Cover:24
GRASP Method!
Number cuts repeat: 0
value: 64.344371
Number Constraints Used in Cover:34
GRASP Method!
Number cuts repeat: 0
value: 64.344371
Number Constraints Used in Cover:43
GRASP Method!
Number cuts repeat: 0
value: 64.344371
Number Constraints Used in Cover:49
GRASP Method!
Number cuts repeat: 0
value: 64.344371
Number Constraints Used in Cover:57
GRASP Method!
Number cuts repeat: 0
value: 64.344371
Number Constraints Used in Cover:63
GRASP Method!
Number cuts repeat: 0
value: 64.344371
Number Constraints Used in Cover:72
GRASP Method!
Number cuts repeat: 0
value: 64.344371
Number Constraints Used in Cover:80
GRASP Method!
Number cuts repeat: 0
value: 64.344371
Number Constraints Used in Cover:86
GRASP Method!
Number cuts repeat: 0
value: 64.344371
Number Constraints Used in Cover:88
GRASP Method!
Number cuts repeat: 0
value: 64.344371
Number Constraints Used in Cover:98
GRASP Method!
Number cuts repeat: 0
value: 64.344371
Number Constraints Used in Cover:116
GRASP Method!
Number cuts repeat: 0
value: 64.344371
Number Constraints Used in Cover:118
GRASP Method!
Number cuts repeat: 0
value: 64.344371
Number Constraints Used in Cover:124
GRASP Method!
Number cuts repeat: 0
value: 64.344371
Number Constraints Used in Cover:130
GRASP Method!
Number cuts repeat: 0
value: 63.920306
Number Constraints Used in Cover:142
GRASP Method!
Number cuts repeat: 0
value: 63.920306
Number Constraints Used in Cover:149
GRASP Method!
Number cuts repeat: 0
value: 63.920306
Number Constraints Used in Cover:159
GRASP Method!
Number cuts repeat: 0
value: 63.920306
Number Constraints Used in Cover:170
GRASP Method!
Number cuts repeat: 0
value: 63.920306
Number Constraints Used in Cover:179
GRASP Method!
Number cuts repeat: 0
value: 63.920306
Number Constraints Used in Cover:183
GRASP Method!
Number cuts repeat: 0
value: 63.920306
Number Constraints Used in Cover:191
GRASP Method!
Number cuts repeat: 0
value: 63.920306
Number Constraints Used in Cover:198
GRASP Method!
Number cuts repeat: 0
value: 63.920306
Number Constraints Used in Cover:204
GRASP Method!
Number cuts repeat: 0
value: 63.920306
Number Constraints Used in Cover:212
GRASP Method!
Number cuts repeat: 0
value: 63.920306
Number Constraints Used in Cover:221
GRASP Method!
Number cuts repeat: 0
value: 63.920306
Number Constraints Used in Cover:226
GRASP Method!
Number cuts repeat: 0
value: 63.920306
Number Constraints Used in Cover:232
GRASP Method!
Number cuts repeat: 0
value: 63.920306
Number Constraints Used in Cover:238
GRASP Method!
Number cuts repeat: 0
value: 63.920306
Number Constraints Used in Cover:243
GRASP Method!
Number cuts repeat: 0
value: 63.920306
Number Constraints Used in Cover:251
GRASP Method!
Number cuts repeat: 0
value: 63.920306
Number Constraints Used in Cover:256
GRASP Method!
Number cuts repeat: 0
value: 63.920306
Number Constraints Used in Cover:265
GRASP Method!
Number cuts repeat: 0
value: 63.920306
Number Constraints Used in Cover:268
GRASP Method!
Number cuts repeat: 0
value: 63.920306
Number Constraints Used in Cover:276
GRASP Method!
Number cuts repeat: 0
value: 63.920306
Number Constraints Used in Cover:283
GRASP Method!
Number cuts repeat: 0
value: 63.920306
Number Constraints Used in Cover:294
GRASP Method!
Number cuts repeat: 0
value: 63.920306
Number Constraints Used in Cover:302
GRASP Method!
Number cuts repeat: 0
value: 63.920306
Number Constraints Used in Cover:310
GRASP Method!
Number cuts repeat: 0
value: 63.920306
Number Constraints Used in Cover:318
GRASP Method!
Number cuts repeat: 0
value: 63.920306
Number Constraints Used in Cover:322
GRASP Method!
Number cuts repeat: 0
value: 63.920306
Number Constraints Used in Cover:326
GRASP Method!
Number cuts repeat: 0
value: 63.920306
Number Constraints Used in Cover:333
GRASP Method!
Number cuts repeat: 0
value: 63.920306
Number Constraints Used in Cover:334
GRASP Method!
Number cuts repeat: 0
value: 63.920306
Number Constraints Used in Cover:334
GRASP Method!
Number cuts repeat: 0
value: 63.920306
Number Constraints Used in Cover:338
GRASP Method!
Number cuts repeat: 0
value: 63.920306
Number Constraints Used in Cover:345
GRASP Method!
Number cuts repeat: 0
value: 63.920306
Number Constraints Used in Cover:347
GRASP Method!
Number cuts repeat: 0
value: 63.920306
Number Constraints Used in Cover:352
GRASP Method!
Number cuts repeat: 0
value: 63.920306
Number Constraints Used in Cover:355
GRASP Method!
Number cuts repeat: 0
value: 63.920306
Number Constraints Used in Cover:359
GRASP Method!
Number cuts repeat: 0
value: 63.920306
Number Constraints Used in Cover:361
GRASP Method!
Number cuts repeat: 0
value: 63.920306
Number Constraints Used in Cover:365
GRASP Method!
Number cuts repeat: 0
value: 63.920306
Number Constraints Used in Cover:369
GRASP Method!
Number cuts repeat: 0
value: 63.920306
Number Constraints Used in Cover:374
GRASP Method!
Number cuts repeat: 0
value: 63.920306
Number Constraints Used in Cover:377
GRASP Method!
Number cuts repeat: 0
value: 63.920306
Number Constraints Used in Cover:381
GRASP Method!
Number cuts repeat: 0
value: 63.920306
Number Constraints Used in Cover:387
GRASP Method!
Number cuts repeat: 0
value: 63.920306
Number Constraints Used in Cover:392
GRASP Method!
Number cuts repeat: 0
value: 63.920306
Number Constraints Used in Cover:396
GRASP Method!
Number cuts repeat: 0
value: 63.920306
Number Constraints Used in Cover:399
GRASP Method!
Number cuts repeat: 0
value: 63.920306
Number Constraints Used in Cover:408
GRASP Method!
Number cuts repeat: 0
value: 63.920306
Number Constraints Used in Cover:415
GRASP Method!
Number cuts repeat: 0
value: 63.920306
Number Constraints Used in Cover:419
GRASP Method!
Number cuts repeat: 0
value: 63.920306
Number Constraints Used in Cover:420
GRASP Method!
Number cuts repeat: 0
value: 63.920306
Number Constraints Used in Cover:421
GRASP Method!
Number cuts repeat: 0
value: 63.920306
Number Constraints Used in Cover:426
GRASP Method!
Number cuts repeat: 0
value: 63.920306
Number Constraints Used in Cover:429
GRASP Method!
Number cuts repeat: 0
value: 63.920306
Number Constraints Used in Cover:433
GRASP Method!
Number cuts repeat: 0
value: 63.920306
Number Constraints Used in Cover:437
GRASP Method!
Number cuts repeat: 0
value: 63.920306
Number Constraints Used in Cover:441
GRASP Method!
Number cuts repeat: 0
value: 63.920306
Number Constraints Used in Cover:443
GRASP Method!
Number cuts repeat: 0
value: 63.920306
Number Constraints Used in Cover:445
GRASP Method!
Number cuts repeat: 0
value: 63.920306
Number Constraints Used in Cover:451
GRASP Method!
Number cuts repeat: 0
value: 63.920306
Number Constraints Used in Cover:453
GRASP Method!
Number cuts repeat: 0
value: 63.920306
Number Constraints Used in Cover:459
GRASP Method!
Number cuts repeat: 0
value: 63.920306
Number Constraints Used in Cover:462
GRASP Method!
Number cuts repeat: 0
value: 63.920306
Number Constraints Used in Cover:463
GRASP Method!
Number cuts repeat: 0
value: 63.920306
Number Constraints Used in Cover:463
GRASP Method!
Number cuts repeat: 0
value: 63.920306
Number Constraints Used in Cover:466
GRASP Method!
Number cuts repeat: 0
value: 63.920306
Number Constraints Used in Cover:466
GRASP Method!
Number cuts repeat: 0
value: 63.920306
Number Constraints Used in Cover:471
GRASP Method!
Number cuts repeat: 0
value: 63.920306
Number Constraints Used in Cover:475
GRASP Method!
Number cuts repeat: 0
value: 63.920306
Number Constraints Used in Cover:479
GRASP Method!
Number cuts repeat: 0
value: 63.920306
Number Constraints Used in Cover:482
GRASP Method!
Number cuts repeat: 0
value: 63.920306
Number Constraints Used in Cover:486
GRASP Method!
Number cuts repeat: 0
value: 63.920306
Number Constraints Used in Cover:488
GRASP Method!
Number cuts repeat: 0
value: 63.920306
Number Constraints Used in Cover:495
GRASP Method!
Number cuts repeat: 0
value: 63.920306
Number Constraints Used in Cover:499
GRASP Method!
Number cuts repeat: 0
value: 63.920306
Number Constraints Used in Cover:500
GRASP Method!
Number cuts repeat: 0
value: 63.920306
Number Constraints Used in Cover:501
GRASP Method!
Number cuts repeat: 0
value: 63.920306
Number Constraints Used in Cover:506
GRASP Method!
Number cuts repeat: 0
value: 63.920306
Number Constraints Used in Cover:508
GRASP Method!
Number cuts repeat: 0
value: 63.920306
Number Constraints Used in Cover:513
GRASP Method!
Number cuts repeat: 0
value: 63.920306
Number Constraints Used in Cover:514
GRASP Method!
Number cuts repeat: 0
value: 63.920306
Number Constraints Used in Cover:517
GRASP Method!
Number cuts repeat: 0
value: 63.920306
Number Constraints Used in Cover:524
GRASP Method!
Number cuts repeat: 0
value: 63.920306
Number Constraints Used in Cover:527
GRASP Method!
Number cuts repeat: 0
value: 63.920306
Number Constraints Used in Cover:538
GRASP Method!
Number cuts repeat: 0
value: 63.920306
Number Constraints Used in Cover:541
GRASP Method!
Number cuts repeat: 0
value: 63.920306
Number Constraints Used in Cover:545
GRASP Method!
Number cuts repeat: 0
value: 63.920306
Number Constraints Used in Cover:551
GRASP Method!
Number cuts repeat: 0
value: 63.920306
Number Constraints Used in Cover:552
GRASP Method!
Number cuts repeat: 0
value: 63.920306
Number Constraints Used in Cover:554
GRASP Method!
Number cuts repeat: 0
value: 63.920306
Number Constraints Used in Cover:556
GRASP Method!
Number cuts repeat: 0
value: 63.920306
Number Constraints Used in Cover:556
GRASP Method!
Number cuts repeat: 0
value: 63.920306
Number Constraints Used in Cover:558
GRASP Method!
Number cuts repeat: 0
value: 63.920306
Number Constraints Used in Cover:564
GRASP Method!
Number cuts repeat: 0
value: 63.920306
Number Constraints Used in Cover:579
GRASP Method!
Number cuts repeat: 0
value: 63.920306
Number Constraints Used in Cover:582
GRASP Method!
Number cuts repeat: 0
value: 63.920306
Number Constraints Used in Cover:590
GRASP Method!
Number cuts repeat: 0
value: 63.920306
Number Constraints Used in Cover:596
GRASP Method!
Number cuts repeat: 0
value: 63.920306
Number Constraints Used in Cover:604
GRASP Method!
Number cuts repeat: 0
value: 63.920306
Number Constraints Used in Cover:609
GRASP Method!
Number cuts repeat: 0
value: 63.920306
Number Constraints Used in Cover:613
GRASP Method!
Number cuts repeat: 0
value: 63.774890
Number Constraints Used in Cover:618
GRASP Method!
Number cuts repeat: 0
value: 63.774890
Number Constraints Used in Cover:629
GRASP Method!
Number cuts repeat: 0
value: 63.774890
Number Constraints Used in Cover:637
GRASP Method!
Number cuts repeat: 0
value: 63.774890
Number Constraints Used in Cover:641
GRASP Method!
Number cuts repeat: 0
value: 63.774890
Number Constraints Used in Cover:646
GRASP Method!
Number cuts repeat: 0
value: 63.774890
Number Constraints Used in Cover:658
GRASP Method!
Number cuts repeat: 0
value: 63.774890
Number Constraints Used in Cover:666
GRASP Method!
Number cuts repeat: 0
value: 63.774890
Number Constraints Used in Cover:680
GRASP Method!
Number cuts repeat: 0
value: 63.774890
Number Constraints Used in Cover:691
GRASP Method!
Number cuts repeat: 0
value: 63.774890
Number Constraints Used in Cover:704
GRASP Method!
Number cuts repeat: 0
value: 63.774890
Number Constraints Used in Cover:725
GRASP Method!
Number cuts repeat: 0
value: 63.774890
Number Cuts Final: 728
